nK = 843;
nT = 6;
nI = 14;
L = 29;
TT = 248;
np = 1;
nc = 3;
b = [35, 40, 23, 58, 46, 53, 69, 57, 55, 26, 36, 58, 45, 30];
d = [79, 100, 42, 144, 139, 102, 115, 136, 94, 65, 72, 102, 94, 87];
m = [2.3, 1.3, 2, 1.8, 1.3, 1.3, 1.2, 2.2, 1.2, 1.1, 1.8, 2, 1, 1.9];
pt = [0.35, 0.33, 0.28, 0.34, 0.29, 0.33];
st = [15.75, 15.84, 12.04, 17, 17.4, 17.49];
arc = {<1, 0, 1, 1, 0, 0, 0, [1, 1, 1, 1, 1, 1]>, <2, 1, 2, 1, 0, 0, 0, [1, 1, 1, 1, 1, 1]>, <3, 2, 3, 1, 0, 0, 0, [1, 1, 1, 1, 1, 1]>, <4, 3, 4, 1, 0, 0, 0, [1, 1, 1, 1, 1, 1]>, <5, 4, 5, 1, 0, 0, 0, [1, 1, 1, 1, 1, 1]>, <6, 5, 6, 1, 0, 0, 0, [1, 1, 1, 1, 1, 1]>, <7, 6, 7, 1, 0, 0, 0, [1, 1, 1, 1, 1, 1]>, <8, 7, 8, 1, 0, 0, 0, [1, 1, 1, 1, 1, 1]>, <9, 8, 9, 1, 0, 0, 0, [1, 1, 1, 1, 1, 1]>, <10, 9, 10, 1, 0, 0, 0, [1, 1, 1, 1, 1, 1]>, <11, 10, 11, 1, 0, 0, 0, [1, 1, 1, 1, 1, 1]>, <12, 11, 12, 1, 0, 0, 0, [1, 1, 1, 1, 1, 1]>, <13, 12, 13, 1, 0, 0, 0, [1, 1, 1, 1, 1, 1]>, <14, 13, 14, 1, 0, 0, 0, [1, 1, 1, 1, 1, 1]>, <15, 14, 15, 1, 0, 0, 0, [1, 1, 1, 1, 1, 1]>, <16, 15, 16, 1, 0, 0, 0, [1, 1, 1, 1, 1, 1]>, <17, 16, 17, 1, 0, 0, 0, [1, 1, 1, 1, 1, 1]>, <18, 17, 18, 1, 0, 0, 0, [1, 1, 1, 1, 1, 1]>, <19, 18, 19, 1, 0, 0, 0, [1, 1, 1, 1, 1, 1]>, <20, 19, 20, 1, 0, 0, 0, [1, 1, 1, 1, 1, 1]>, <21, 20, 21, 1, 0, 0, 0, [1, 1, 1, 1, 1, 1]>, <22, 21, 22, 1, 0, 0, 0, [1, 1, 1, 1, 1, 1]>, <23, 22, 23, 1, 0, 0, 0, [1, 1, 1, 1, 1, 1]>, <24, 23, 24, 1, 0, 0, 0, [1, 1, 1, 1, 1, 1]>, <25, 24, 25, 1, 0, 0, 0, [1, 1, 1, 1, 1, 1]>, <26, 25, 26, 1, 0, 0, 0, [1, 1, 1, 1, 1, 1]>, <27, 26, 27, 1, 0, 0, 0, [1, 1, 1, 1, 1, 1]>, <28, 27, 28, 1, 0, 0, 0, [1, 1, 1, 1, 1, 1]>, <29, 28, 29, 1, 0, 0, 0, [1, 1, 1, 1, 1, 1]>, <30, 3, 12, 9, 1, 0, 0, [0, 0, 1, 1, 0, 0]>, <31, 4, 13, 9, 1, 0, 0, [0, 0, 1, 1, 0, 0]>, <32, 5, 14, 9, 1, 0, 0, [0, 0, 1, 1, 0, 0]>, <33, 11, 20, 9, 1, 0, 0, [0, 0, 1, 1, 0, 0]>, <34, 12, 21, 9, 1, 0, 0, [0, 0, 1, 1, 0, 0]>, <35, 15, 24, 9, 1, 0, 0, [0, 0, 1, 1, 0, 0]>, <36, 16, 25, 9, 1, 0, 0, [0, 0, 1, 1, 0, 0]>, <37, 17, 26, 9, 1, 0, 0, [0, 0, 1, 1, 0, 0]>, <38, 18, 27, 9, 1, 0, 0, [0, 0, 1, 1, 0, 0]>, <39, 19, 28, 9, 1, 0, 0, [0, 0, 1, 1, 0, 0]>, <40, 20, 29, 9, 1, 0, 0, [0, 0, 1, 1, 0, 0]>, <41, 0, 12, 12, 2, 0, 1, [0, 0, 0, 0, 1, 1]>, <42, 1, 13, 12, 2, 0, 1, [0, 0, 0, 0, 1, 1]>, <43, 2, 14, 12, 2, 0, 1, [0, 0, 0, 0, 1, 1]>, <44, 3, 15, 12, 2, 0, 1, [0, 0, 0, 0, 1, 1]>, <45, 4, 16, 12, 2, 0, 1, [0, 0, 0, 0, 1, 1]>, <46, 5, 17, 12, 2, 0, 1, [0, 0, 0, 0, 1, 1]>, <47, 8, 20, 12, 2, 0, 1, [0, 0, 0, 0, 1, 1]>, <48, 9, 21, 12, 2, 0, 1, [0, 0, 0, 0, 1, 1]>, <49, 10, 22, 12, 2, 0, 1, [0, 0, 0, 0, 1, 1]>, <50, 11, 23, 12, 2, 0, 1, [0, 0, 0, 0, 1, 1]>, <51, 12, 24, 12, 2, 0, 1, [0, 0, 0, 0, 1, 1]>, <52, 13, 25, 12, 2, 0, 1, [0, 0, 0, 0, 1, 1]>, <53, 14, 26, 12, 2, 0, 1, [0, 0, 0, 0, 1, 1]>, <54, 15, 27, 12, 2, 0, 1, [0, 0, 0, 0, 1, 1]>, <55, 16, 28, 12, 2, 0, 1, [0, 0, 0, 0, 1, 1]>, <56, 17, 29, 12, 2, 0, 1, [0, 0, 0, 0, 1, 1]>, <57, 4, 12, 8, 3, 0, 0, [0, 0, 1, 1, 0, 0]>, <58, 5, 13, 8, 3, 0, 0, [0, 0, 1, 1, 0, 0]>, <59, 11, 19, 8, 3, 0, 0, [0, 0, 1, 1, 0, 0]>, <60, 12, 20, 8, 3, 0, 0, [0, 0, 1, 1, 0, 0]>, <61, 16, 24, 8, 3, 0, 0, [0, 0, 1, 1, 0, 0]>, <62, 17, 25, 8, 3, 0, 0, [0, 0, 1, 1, 0, 0]>, <63, 18, 26, 8, 3, 0, 0, [0, 0, 1, 1, 0, 0]>, <64, 19, 27, 8, 3, 0, 0, [0, 0, 1, 1, 0, 0]>, <65, 20, 28, 8, 3, 0, 0, [0, 0, 1, 1, 0, 0]>, <66, 3, 12, 9, 4, 0, 1, [0, 1, 1, 0, 0, 0]>, <67, 4, 13, 9, 4, 0, 1, [0, 1, 1, 0, 0, 0]>, <68, 5, 14, 9, 4, 0, 1, [0, 1, 1, 0, 0, 0]>, <69, 11, 20, 9, 4, 0, 1, [0, 1, 1, 0, 0, 0]>, <70, 12, 21, 9, 4, 0, 1, [0, 1, 1, 0, 0, 0]>, <71, 15, 24, 9, 4, 0, 1, [0, 1, 1, 0, 0, 0]>, <72, 16, 25, 9, 4, 0, 1, [0, 1, 1, 0, 0, 0]>, <73, 17, 26, 9, 4, 0, 1, [0, 1, 1, 0, 0, 0]>, <74, 18, 27, 9, 4, 0, 1, [0, 1, 1, 0, 0, 0]>, <75, 19, 28, 9, 4, 0, 1, [0, 1, 1, 0, 0, 0]>, <76, 20, 29, 9, 4, 0, 1, [0, 1, 1, 0, 0, 0]>, <77, 2, 12, 10, 5, 0, 1, [1, 0, 0, 0, 0, 1]>, <78, 3, 13, 10, 5, 0, 1, [1, 0, 0, 0, 0, 1]>, <79, 4, 14, 10, 5, 0, 1, [1, 0, 0, 0, 0, 1]>, <80, 5, 15, 10, 5, 0, 1, [1, 0, 0, 0, 0, 1]>, <81, 10, 20, 10, 5, 0, 1, [1, 0, 0, 0, 0, 1]>, <82, 11, 21, 10, 5, 0, 1, [1, 0, 0, 0, 0, 1]>, <83, 12, 22, 10, 5, 0, 1, [1, 0, 0, 0, 0, 1]>, <84, 14, 24, 10, 5, 0, 1, [1, 0, 0, 0, 0, 1]>, <85, 15, 25, 10, 5, 0, 1, [1, 0, 0, 0, 0, 1]>, <86, 16, 26, 10, 5, 0, 1, [1, 0, 0, 0, 0, 1]>, <87, 17, 27, 10, 5, 0, 1, [1, 0, 0, 0, 0, 1]>, <88, 18, 28, 10, 5, 0, 1, [1, 0, 0, 0, 0, 1]>, <89, 19, 29, 10, 5, 0, 1, [1, 0, 0, 0, 0, 1]>, <90, 4, 12, 8, 6, 0, 0, [1, 1, 0, 0, 0, 0]>, <91, 5, 13, 8, 6, 0, 0, [1, 1, 0, 0, 0, 0]>, <92, 11, 19, 8, 6, 0, 0, [1, 1, 0, 0, 0, 0]>, <93, 12, 20, 8, 6, 0, 0, [1, 1, 0, 0, 0, 0]>, <94, 16, 24, 8, 6, 0, 0, [1, 1, 0, 0, 0, 0]>, <95, 17, 25, 8, 6, 0, 0, [1, 1, 0, 0, 0, 0]>, <96, 18, 26, 8, 6, 0, 0, [1, 1, 0, 0, 0, 0]>, <97, 19, 27, 8, 6, 0, 0, [1, 1, 0, 0, 0, 0]>, <98, 20, 28, 8, 6, 0, 0, [1, 1, 0, 0, 0, 0]>, <99, 2, 12, 10, 7, 0, 0, [0, 0, 0, 1, 1, 0]>, <100, 3, 13, 10, 7, 0, 0, [0, 0, 0, 1, 1, 0]>, <101, 4, 14, 10, 7, 0, 0, [0, 0, 0, 1, 1, 0]>, <102, 5, 15, 10, 7, 0, 0, [0, 0, 0, 1, 1, 0]>, <103, 10, 20, 10, 7, 0, 0, [0, 0, 0, 1, 1, 0]>, <104, 11, 21, 10, 7, 0, 0, [0, 0, 0, 1, 1, 0]>, <105, 12, 22, 10, 7, 0, 0, [0, 0, 0, 1, 1, 0]>, <106, 14, 24, 10, 7, 0, 0, [0, 0, 0, 1, 1, 0]>, <107, 15, 25, 10, 7, 0, 0, [0, 0, 0, 1, 1, 0]>, <108, 16, 26, 10, 7, 0, 0, [0, 0, 0, 1, 1, 0]>, <109, 17, 27, 10, 7, 0, 0, [0, 0, 0, 1, 1, 0]>, <110, 18, 28, 10, 7, 0, 0, [0, 0, 0, 1, 1, 0]>, <111, 19, 29, 10, 7, 0, 0, [0, 0, 0, 1, 1, 0]>, <112, 1, 12, 11, 8, 0, 0, [1, 0, 0, 0, 0, 1]>, <113, 2, 13, 11, 8, 0, 0, [1, 0, 0, 0, 0, 1]>, <114, 3, 14, 11, 8, 0, 0, [1, 0, 0, 0, 0, 1]>, <115, 4, 15, 11, 8, 0, 0, [1, 0, 0, 0, 0, 1]>, <116, 5, 16, 11, 8, 0, 0, [1, 0, 0, 0, 0, 1]>, <117, 9, 20, 11, 8, 0, 0, [1, 0, 0, 0, 0, 1]>, <118, 10, 21, 11, 8, 0, 0, [1, 0, 0, 0, 0, 1]>, <119, 11, 22, 11, 8, 0, 0, [1, 0, 0, 0, 0, 1]>, <120, 12, 23, 11, 8, 0, 0, [1, 0, 0, 0, 0, 1]>, <121, 13, 24, 11, 8, 0, 0, [1, 0, 0, 0, 0, 1]>, <122, 14, 25, 11, 8, 0, 0, [1, 0, 0, 0, 0, 1]>, <123, 15, 26, 11, 8, 0, 0, [1, 0, 0, 0, 0, 1]>, <124, 16, 27, 11, 8, 0, 0, [1, 0, 0, 0, 0, 1]>, <125, 17, 28, 11, 8, 0, 0, [1, 0, 0, 0, 0, 1]>, <126, 18, 29, 11, 8, 0, 0, [1, 0, 0, 0, 0, 1]>, <127, 3, 12, 9, 9, 0, 0, [0, 0, 0, 0, 1, 1]>, <128, 4, 13, 9, 9, 0, 0, [0, 0, 0, 0, 1, 1]>, <129, 5, 14, 9, 9, 0, 0, [0, 0, 0, 0, 1, 1]>, <130, 11, 20, 9, 9, 0, 0, [0, 0, 0, 0, 1, 1]>, <131, 12, 21, 9, 9, 0, 0, [0, 0, 0, 0, 1, 1]>, <132, 15, 24, 9, 9, 0, 0, [0, 0, 0, 0, 1, 1]>, <133, 16, 25, 9, 9, 0, 0, [0, 0, 0, 0, 1, 1]>, <134, 17, 26, 9, 9, 0, 0, [0, 0, 0, 0, 1, 1]>, <135, 18, 27, 9, 9, 0, 0, [0, 0, 0, 0, 1, 1]>, <136, 19, 28, 9, 9, 0, 0, [0, 0, 0, 0, 1, 1]>, <137, 20, 29, 9, 9, 0, 0, [0, 0, 0, 0, 1, 1]>, <138, 1, 12, 11, 10, 0, 1, [0, 0, 0, 1, 1, 0]>, <139, 2, 13, 11, 10, 0, 1, [0, 0, 0, 1, 1, 0]>, <140, 3, 14, 11, 10, 0, 1, [0, 0, 0, 1, 1, 0]>, <141, 4, 15, 11, 10, 0, 1, [0, 0, 0, 1, 1, 0]>, <142, 5, 16, 11, 10, 0, 1, [0, 0, 0, 1, 1, 0]>, <143, 9, 20, 11, 10, 0, 1, [0, 0, 0, 1, 1, 0]>, <144, 10, 21, 11, 10, 0, 1, [0, 0, 0, 1, 1, 0]>, <145, 11, 22, 11, 10, 0, 1, [0, 0, 0, 1, 1, 0]>, <146, 12, 23, 11, 10, 0, 1, [0, 0, 0, 1, 1, 0]>, <147, 13, 24, 11, 10, 0, 1, [0, 0, 0, 1, 1, 0]>, <148, 14, 25, 11, 10, 0, 1, [0, 0, 0, 1, 1, 0]>, <149, 15, 26, 11, 10, 0, 1, [0, 0, 0, 1, 1, 0]>, <150, 16, 27, 11, 10, 0, 1, [0, 0, 0, 1, 1, 0]>, <151, 17, 28, 11, 10, 0, 1, [0, 0, 0, 1, 1, 0]>, <152, 18, 29, 11, 10, 0, 1, [0, 0, 0, 1, 1, 0]>, <153, 2, 12, 10, 11, 0, 1, [1, 1, 0, 0, 0, 0]>, <154, 3, 13, 10, 11, 0, 1, [1, 1, 0, 0, 0, 0]>, <155, 4, 14, 10, 11, 0, 1, [1, 1, 0, 0, 0, 0]>, <156, 5, 15, 10, 11, 0, 1, [1, 1, 0, 0, 0, 0]>, <157, 10, 20, 10, 11, 0, 1, [1, 1, 0, 0, 0, 0]>, <158, 11, 21, 10, 11, 0, 1, [1, 1, 0, 0, 0, 0]>, <159, 12, 22, 10, 11, 0, 1, [1, 1, 0, 0, 0, 0]>, <160, 14, 24, 10, 11, 0, 1, [1, 1, 0, 0, 0, 0]>, <161, 15, 25, 10, 11, 0, 1, [1, 1, 0, 0, 0, 0]>, <162, 16, 26, 10, 11, 0, 1, [1, 1, 0, 0, 0, 0]>, <163, 17, 27, 10, 11, 0, 1, [1, 1, 0, 0, 0, 0]>, <164, 18, 28, 10, 11, 0, 1, [1, 1, 0, 0, 0, 0]>, <165, 19, 29, 10, 11, 0, 1, [1, 1, 0, 0, 0, 0]>, <166, 2, 12, 10, 12, 0, 1, [1, 0, 0, 0, 0, 1]>, <167, 3, 13, 10, 12, 0, 1, [1, 0, 0, 0, 0, 1]>, <168, 4, 14, 10, 12, 0, 1, [1, 0, 0, 0, 0, 1]>, <169, 5, 15, 10, 12, 0, 1, [1, 0, 0, 0, 0, 1]>, <170, 10, 20, 10, 12, 0, 1, [1, 0, 0, 0, 0, 1]>, <171, 11, 21, 10, 12, 0, 1, [1, 0, 0, 0, 0, 1]>, <172, 12, 22, 10, 12, 0, 1, [1, 0, 0, 0, 0, 1]>, <173, 14, 24, 10, 12, 0, 1, [1, 0, 0, 0, 0, 1]>, <174, 15, 25, 10, 12, 0, 1, [1, 0, 0, 0, 0, 1]>, <175, 16, 26, 10, 12, 0, 1, [1, 0, 0, 0, 0, 1]>, <176, 17, 27, 10, 12, 0, 1, [1, 0, 0, 0, 0, 1]>, <177, 18, 28, 10, 12, 0, 1, [1, 0, 0, 0, 0, 1]>, <178, 19, 29, 10, 12, 0, 1, [1, 0, 0, 0, 0, 1]>, <179, 1, 12, 11, 13, 0, 1, [1, 0, 0, 0, 0, 1]>, <180, 2, 13, 11, 13, 0, 1, [1, 0, 0, 0, 0, 1]>, <181, 3, 14, 11, 13, 0, 1, [1, 0, 0, 0, 0, 1]>, <182, 4, 15, 11, 13, 0, 1, [1, 0, 0, 0, 0, 1]>, <183, 5, 16, 11, 13, 0, 1, [1, 0, 0, 0, 0, 1]>, <184, 9, 20, 11, 13, 0, 1, [1, 0, 0, 0, 0, 1]>, <185, 10, 21, 11, 13, 0, 1, [1, 0, 0, 0, 0, 1]>, <186, 11, 22, 11, 13, 0, 1, [1, 0, 0, 0, 0, 1]>, <187, 12, 23, 11, 13, 0, 1, [1, 0, 0, 0, 0, 1]>, <188, 13, 24, 11, 13, 0, 1, [1, 0, 0, 0, 0, 1]>, <189, 14, 25, 11, 13, 0, 1, [1, 0, 0, 0, 0, 1]>, <190, 15, 26, 11, 13, 0, 1, [1, 0, 0, 0, 0, 1]>, <191, 16, 27, 11, 13, 0, 1, [1, 0, 0, 0, 0, 1]>, <192, 17, 28, 11, 13, 0, 1, [1, 0, 0, 0, 0, 1]>, <193, 18, 29, 11, 13, 0, 1, [1, 0, 0, 0, 0, 1]>, <194, 4, 11, 7, 14, 0, 0, [1, 1, 0, 0, 0, 0]>, <195, 5, 12, 7, 14, 0, 0, [1, 1, 0, 0, 0, 0]>, <196, 11, 18, 7, 14, 0, 0, [1, 1, 0, 0, 0, 0]>, <197, 12, 19, 7, 14, 0, 0, [1, 1, 0, 0, 0, 0]>, <198, 17, 24, 7, 14, 0, 0, [1, 1, 0, 0, 0, 0]>, <199, 18, 25, 7, 14, 0, 0, [1, 1, 0, 0, 0, 0]>, <200, 19, 26, 7, 14, 0, 0, [1, 1, 0, 0, 0, 0]>, <201, 20, 27, 7, 14, 0, 0, [1, 1, 0, 0, 0, 0]>};
